p cnf 36 96
23 24 1 0
-23 -24 1 0
23 -24 -1 0
-23 24 -1 0
1 25 2 0
-1 -25 2 0
1 -25 -2 0
-1 25 -2 0
2 26 3 0
-2 -26 3 0
2 -26 -3 0
-2 26 -3 0
3 27 4 0
-3 -27 4 0
3 -27 -4 0
-3 27 -4 0
4 28 5 0
-4 -28 5 0
4 -28 -5 0
-4 28 -5 0
5 29 6 0
-5 -29 6 0
5 -29 -6 0
-5 29 -6 0
6 30 7 0
-6 -30 7 0
6 -30 -7 0
-6 30 -7 0
7 31 8 0
-7 -31 8 0
7 -31 -8 0
-7 31 -8 0
8 32 9 0
-8 -32 9 0
8 -32 -9 0
-8 32 -9 0
9 33 10 0
-9 -33 10 0
9 -33 -10 0
-9 33 -10 0
10 34 11 0
-10 -34 11 0
10 -34 -11 0
-10 34 -11 0
11 35 36 0
-11 -35 36 0
11 -35 -36 0
-11 35 -36 0
12 35 36 0
-12 -35 36 0
12 -35 -36 0
-12 35 -36 0
13 34 12 0
-13 -34 12 0
13 -34 -12 0
-13 34 -12 0
14 33 13 0
-14 -33 13 0
14 -33 -13 0
-14 33 -13 0
15 32 14 0
-15 -32 14 0
15 -32 -14 0
-15 32 -14 0
16 31 15 0
-16 -31 15 0
16 -31 -15 0
-16 31 -15 0
17 30 16 0
-17 -30 16 0
17 -30 -16 0
-17 30 -16 0
18 29 17 0
-18 -29 17 0
18 -29 -17 0
-18 29 -17 0
19 28 18 0
-19 -28 18 0
19 -28 -18 0
-19 28 -18 0
20 27 19 0
-20 -27 19 0
20 -27 -19 0
-20 27 -19 0
21 26 20 0
-21 -26 20 0
21 -26 -20 0
-21 26 -20 0
22 25 21 0
-22 -25 21 0
22 -25 -21 0
-22 25 -21 0
23 24 -22 0
-23 -24 -22 0
23 -24 22 0
-23 24 22 0
